c Reduced graph for queen5_5 generated by Cyril Grelier
p edge 25 160
e 1 2
e 1 3
e 1 4
e 1 5
e 1 6
e 1 7
e 1 8
e 1 9
e 1 10
e 1 12
e 1 14
e 1 17
e 1 18
e 1 21
e 1 23
e 1 25
e 2 3
e 2 4
e 2 5
e 2 7
e 2 9
e 2 10
e 2 11
e 2 12
e 2 15
e 2 16
e 2 17
e 2 22
e 2 25
e 3 4
e 3 5
e 3 6
e 3 8
e 3 11
e 3 12
e 3 13
e 3 15
e 3 16
e 3 19
e 3 20
e 3 23
e 4 6
e 4 7
e 4 9
e 4 12
e 4 13
e 4 14
e 4 15
e 4 16
e 4 18
e 4 21
e 4 24
e 5 6
e 5 7
e 5 8
e 5 11
e 5 13
e 5 15
e 5 17
e 5 18
e 5 19
e 5 22
e 5 24
e 6 8
e 6 9
e 6 11
e 6 13
e 6 16
e 6 17
e 6 18
e 6 20
e 6 22
e 6 24
e 7 8
e 7 9
e 7 11
e 7 14
e 7 17
e 7 19
e 7 20
e 7 21
e 7 22
e 7 23
e 8 9
e 8 12
e 8 15
e 8 16
e 8 19
e 8 20
e 8 22
e 8 23
e 8 24
e 9 10
e 9 13
e 9 18
e 9 19
e 9 20
e 9 23
e 9 24
e 9 25
e 10 11
e 10 12
e 10 13
e 10 14
e 10 15
e 10 17
e 10 19
e 10 21
e 10 25
e 11 12
e 11 13
e 11 14
e 11 15
e 11 20
e 11 22
e 12 13
e 12 14
e 12 17
e 12 18
e 12 23
e 13 14
e 13 16
e 13 19
e 13 24
e 14 16
e 14 18
e 14 20
e 14 21
e 14 25
e 15 16
e 15 17
e 15 19
e 15 21
e 15 24
e 16 18
e 16 20
e 16 22
e 16 25
e 17 18
e 17 19
e 17 21
e 17 23
e 18 20
e 18 23
e 18 25
e 19 20
e 19 21
e 19 22
e 20 24
e 20 25
e 21 22
e 21 23
e 21 24
e 21 25
e 22 23
e 22 24
e 22 25
e 23 24
e 23 25
e 24 25
